p cnf 963 2472
51 -2 -1 0
-51 2 0
-51 1 0
52 -51 -3 0
-52 51 0
-52 3 0
53 -5 -4 0
-53 5 0
-53 4 0
54 -53 -696 0
-54 53 0
-54 696 0
55 -697 -698 0
-55 697 0
-55 698 0
56 -7 -5 0
-56 7 0
-56 5 0
57 -56 -699 0
-57 56 0
-57 699 0
58 -700 -55 0
-58 700 0
-58 55 0
59 -10 -9 0
-59 10 0
-59 9 0
60 -59 -701 0
-60 59 0
-60 701 0
61 -702 -58 0
-61 702 0
-61 58 0
62 -703 -704 0
-62 703 0
-62 704 0
63 -62 -701 0
-63 62 0
-63 701 0
64 -705 -61 0
-64 705 0
-64 61 0
65 -15 -706 0
-65 15 0
-65 706 0
66 -65 -16 0
-66 65 0
-66 16 0
67 -707 -64 0
-67 707 0
-67 64 0
68 -17 -708 0
-68 17 0
-68 708 0
69 -68 -18 0
-69 68 0
-69 18 0
70 -709 -67 0
-70 709 0
-70 67 0
71 -710 -711 0
-71 710 0
-71 711 0
72 -71 -712 0
-72 71 0
-72 712 0
73 -713 -70 0
-73 713 0
-73 70 0
74 -22 -8 0
-74 22 0
-74 8 0
75 -74 -23 0
-75 74 0
-75 23 0
76 -714 -73 0
-76 714 0
-76 73 0
77 -24 -715 0
-77 24 0
-77 715 0
78 -77 -25 0
-78 77 0
-78 25 0
79 -716 -76 0
-79 716 0
-79 76 0
80 -24 -4 0
-80 24 0
-80 4 0
81 -80 -23 0
-81 80 0
-81 23 0
82 -717 -79 0
-82 717 0
-82 79 0
83 -718 -24 0
-83 718 0
-83 24 0
84 -83 -719 0
-84 83 0
-84 719 0
85 -720 -82 0
-85 720 0
-85 82 0
86 -27 -18 0
-86 27 0
-86 18 0
87 -86 -20 0
-87 86 0
-87 20 0
88 -721 -85 0
-88 721 0
-88 85 0
89 -722 -723 0
-89 722 0
-89 723 0
90 -89 -29 0
-90 89 0
-90 29 0
91 -724 -88 0
-91 724 0
-91 88 0
92 -711 -6 0
-92 711 0
-92 6 0
93 -92 -29 0
-93 92 0
-93 29 0
94 -725 -91 0
-94 725 0
-94 91 0
95 -31 -726 0
-95 31 0
-95 726 0
96 -95 -32 0
-96 95 0
-96 32 0
97 -727 -94 0
-97 727 0
-97 94 0
98 -30 -703 0
-98 30 0
-98 703 0
99 -98 -728 0
-99 98 0
-99 728 0
100 -729 -97 0
-100 729 0
-100 97 0
101 -34 -12 0
-101 34 0
-101 12 0
102 -101 -1 0
-102 101 0
-102 1 0
103 -730 -100 0
-103 730 0
-103 100 0
104 -731 -18 0
-104 731 0
-104 18 0
105 -104 -732 0
-105 104 0
-105 732 0
106 -733 -103 0
-106 733 0
-106 103 0
107 -36 -701 0
-107 36 0
-107 701 0
108 -107 -23 0
-108 107 0
-108 23 0
109 -734 -106 0
-109 734 0
-109 106 0
110 -735 -736 0
-110 735 0
-110 736 0
111 -110 -732 0
-111 110 0
-111 732 0
112 -737 -109 0
-112 737 0
-112 109 0
113 -37 -708 0
-113 37 0
-113 708 0
114 -113 -10 0
-114 113 0
-114 10 0
115 -738 -112 0
-115 738 0
-115 112 0
116 -718 -736 0
-116 718 0
-116 736 0
117 -116 -735 0
-117 116 0
-117 735 0
118 -739 -115 0
-118 739 0
-118 115 0
119 -38 -31 0
-119 38 0
-119 31 0
120 -119 -21 0
-120 119 0
-120 21 0
121 -740 -118 0
-121 740 0
-121 118 0
122 -34 -731 0
-122 34 0
-122 731 0
123 -122 -712 0
-123 122 0
-123 712 0
124 -741 -121 0
-124 741 0
-124 121 0
125 -742 -20 0
-125 742 0
-125 20 0
126 -125 -29 0
-126 125 0
-126 29 0
127 -743 -124 0
-127 743 0
-127 124 0
128 -744 -745 0
-128 744 0
-128 745 0
129 -128 -746 0
-129 128 0
-129 746 0
130 -747 -127 0
-130 747 0
-130 127 0
131 -748 -31 0
-131 748 0
-131 31 0
132 -131 -712 0
-132 131 0
-132 712 0
133 -749 -130 0
-133 749 0
-133 130 0
134 -41 -711 0
-134 41 0
-134 711 0
135 -134 -710 0
-135 134 0
-135 710 0
136 -750 -133 0
-136 750 0
-136 133 0
137 -711 -5 0
-137 711 0
-137 5 0
138 -137 -751 0
-138 137 0
-138 751 0
139 -752 -136 0
-139 752 0
-139 136 0
140 -753 -12 0
-140 753 0
-140 12 0
141 -140 -708 0
-141 140 0
-141 708 0
142 -754 -139 0
-142 754 0
-142 139 0
143 -755 -8 0
-143 755 0
-143 8 0
144 -143 -1 0
-144 143 0
-144 1 0
145 -756 -142 0
-145 756 0
-145 142 0
146 -735 -36 0
-146 735 0
-146 36 0
147 -146 -6 0
-147 146 0
-147 6 0
148 -757 -145 0
-148 757 0
-148 145 0
149 -758 -699 0
-149 758 0
-149 699 0
150 -149 -25 0
-150 149 0
-150 25 0
151 -759 -148 0
-151 759 0
-151 148 0
152 -44 -14 0
-152 44 0
-152 14 0
153 -152 -746 0
-153 152 0
-153 746 0
154 -760 -151 0
-154 760 0
-154 151 0
155 -758 -726 0
-155 758 0
-155 726 0
156 -155 -746 0
-156 155 0
-156 746 0
157 -761 -154 0
-157 761 0
-157 154 0
158 -762 -30 0
-158 762 0
-158 30 0
159 -158 -39 0
-159 158 0
-159 39 0
160 -763 -157 0
-160 763 0
-160 157 0
161 -718 -9 0
-161 718 0
-161 9 0
162 -161 -28 0
-162 161 0
-162 28 0
163 -764 -160 0
-163 764 0
-163 160 0
164 -715 -4 0
-164 715 0
-164 4 0
165 -164 -37 0
-165 164 0
-165 37 0
166 -765 -163 0
-166 765 0
-166 163 0
167 -43 -718 0
-167 43 0
-167 718 0
168 -167 -45 0
-168 167 0
-168 45 0
169 -766 -166 0
-169 766 0
-169 166 0
170 -704 -6 0
-170 704 0
-170 6 0
171 -170 -742 0
-171 170 0
-171 742 0
172 -767 -169 0
-172 767 0
-172 169 0
173 -45 -2 0
-173 45 0
-173 2 0
174 -173 -768 0
-174 173 0
-174 768 0
175 -769 -172 0
-175 769 0
-175 172 0
176 -43 -28 0
-176 43 0
-176 28 0
177 -176 -770 0
-177 176 0
-177 770 0
178 -771 -175 0
-178 771 0
-178 175 0
179 -22 -17 0
-179 22 0
-179 17 0
180 -179 -732 0
-180 179 0
-180 732 0
181 -772 -178 0
-181 772 0
-181 178 0
182 -15 -773 0
-182 15 0
-182 773 0
183 -182 -28 0
-183 182 0
-183 28 0
184 -774 -181 0
-184 774 0
-184 181 0
185 -775 -35 0
-185 775 0
-185 35 0
186 -185 -776 0
-186 185 0
-186 776 0
187 -777 -184 0
-187 777 0
-187 184 0
188 -778 -715 0
-188 778 0
-188 715 0
189 -188 -47 0
-189 188 0
-189 47 0
190 -779 -187 0
-190 779 0
-190 187 0
191 -758 -9 0
-191 758 0
-191 9 0
192 -191 -768 0
-192 191 0
-192 768 0
193 -780 -190 0
-193 780 0
-193 190 0
194 -48 -20 0
-194 48 0
-194 20 0
195 -194 -751 0
-195 194 0
-195 751 0
196 -781 -193 0
-196 781 0
-196 193 0
197 -782 -18 0
-197 782 0
-197 18 0
198 -197 -706 0
-198 197 0
-198 706 0
199 -783 -196 0
-199 783 0
-199 196 0
200 -748 -25 0
-200 748 0
-200 25 0
201 -200 -50 0
-201 200 0
-201 50 0
202 -784 -199 0
-202 784 0
-202 199 0
203 -785 -12 0
-203 785 0
-203 12 0
204 -203 -42 0
-204 203 0
-204 42 0
205 -786 -202 0
-205 786 0
-205 202 0
206 -49 -20 0
-206 49 0
-206 20 0
207 -206 -6 0
-207 206 0
-207 6 0
208 -787 -205 0
-208 787 0
-208 205 0
209 -28 -22 0
-209 28 0
-209 22 0
210 -209 -3 0
-210 209 0
-210 3 0
211 -788 -208 0
-211 788 0
-211 208 0
212 -736 -13 0
-212 736 0
-212 13 0
213 -212 -39 0
-213 212 0
-213 39 0
214 -789 -211 0
-214 789 0
-214 211 0
215 -17 -790 0
-215 17 0
-215 790 0
216 -215 -23 0
-216 215 0
-216 23 0
217 -791 -214 0
-217 791 0
-217 214 0
218 -38 -15 0
-218 38 0
-218 15 0
219 -218 -790 0
-219 218 0
-219 790 0
220 -792 -217 0
-220 792 0
-220 217 0
221 -30 -27 0
-221 30 0
-221 27 0
222 -221 -3 0
-222 221 0
-222 3 0
223 -793 -220 0
-223 793 0
-223 220 0
224 -723 -736 0
-224 723 0
-224 736 0
225 -224 -2 0
-225 224 0
-225 2 0
226 -794 -223 0
-226 794 0
-226 223 0
227 -782 -751 0
-227 782 0
-227 751 0
228 -227 -719 0
-228 227 0
-228 719 0
229 -795 -226 0
-229 795 0
-229 226 0
230 -43 -3 0
-230 43 0
-230 3 0
231 -230 -16 0
-231 230 0
-231 16 0
232 -796 -229 0
-232 796 0
-232 229 0
233 -746 -699 0
-233 746 0
-233 699 0
234 -233 -776 0
-234 233 0
-234 776 0
235 -797 -232 0
-235 797 0
-235 232 0
236 -755 -710 0
-236 755 0
-236 710 0
237 -236 -28 0
-237 236 0
-237 28 0
238 -798 -235 0
-238 798 0
-238 235 0
239 -736 -9 0
-239 736 0
-239 9 0
240 -239 -1 0
-240 239 0
-240 1 0
241 -799 -238 0
-241 799 0
-241 238 0
242 -47 -26 0
-242 47 0
-242 26 0
243 -242 -50 0
-243 242 0
-243 50 0
244 -800 -241 0
-244 800 0
-244 241 0
245 -715 -790 0
-245 715 0
-245 790 0
246 -245 -23 0
-246 245 0
-246 23 0
247 -801 -244 0
-247 801 0
-247 244 0
248 -704 -7 0
-248 704 0
-248 7 0
249 -248 -16 0
-249 248 0
-249 16 0
250 -802 -247 0
-250 802 0
-250 247 0
251 -758 -704 0
-251 758 0
-251 704 0
252 -251 -751 0
-252 251 0
-252 751 0
253 -803 -250 0
-253 803 0
-253 250 0
254 -21 -773 0
-254 21 0
-254 773 0
255 -254 -776 0
-255 254 0
-255 776 0
256 -804 -253 0
-256 804 0
-256 253 0
257 -732 -12 0
-257 732 0
-257 12 0
258 -257 -775 0
-258 257 0
-258 775 0
259 -805 -256 0
-259 805 0
-259 256 0
260 -711 -15 0
-260 711 0
-260 15 0
261 -260 -50 0
-261 260 0
-261 50 0
262 -806 -259 0
-262 806 0
-262 259 0
263 -755 -6 0
-263 755 0
-263 6 0
264 -263 -46 0
-264 263 0
-264 46 0
265 -807 -262 0
-265 807 0
-265 262 0
266 -38 -6 0
-266 38 0
-266 6 0
267 -266 -722 0
-267 266 0
-267 722 0
268 -808 -265 0
-268 808 0
-268 265 0
269 -49 -785 0
-269 49 0
-269 785 0
270 -269 -711 0
-270 269 0
-270 711 0
271 -809 -268 0
-271 809 0
-271 268 0
272 -736 -710 0
-272 736 0
-272 710 0
273 -272 -24 0
-273 272 0
-273 24 0
274 -810 -271 0
-274 810 0
-274 271 0
275 -748 -4 0
-275 748 0
-275 4 0
276 -275 -701 0
-276 275 0
-276 701 0
277 -811 -274 0
-277 811 0
-277 274 0
278 -718 -11 0
-278 718 0
-278 11 0
279 -278 -719 0
-279 278 0
-279 719 0
280 -812 -277 0
-280 812 0
-280 277 0
281 -43 -736 0
-281 43 0
-281 736 0
282 -281 -744 0
-282 281 0
-282 744 0
283 -813 -280 0
-283 813 0
-283 280 0
284 -755 -10 0
-284 755 0
-284 10 0
285 -284 -751 0
-285 284 0
-285 751 0
286 -814 -283 0
-286 814 0
-286 283 0
287 -48 -704 0
-287 48 0
-287 704 0
288 -287 -735 0
-288 287 0
-288 735 0
289 -815 -286 0
-289 815 0
-289 286 0
290 -704 -11 0
-290 704 0
-290 11 0
291 -290 -770 0
-291 290 0
-291 770 0
292 -816 -289 0
-292 816 0
-292 289 0
293 -15 -715 0
-293 15 0
-293 715 0
294 -293 -742 0
-294 293 0
-294 742 0
295 -817 -292 0
-295 817 0
-295 292 0
296 -818 -31 0
-296 818 0
-296 31 0
297 -296 -775 0
-297 296 0
-297 775 0
298 -819 -295 0
-298 819 0
-298 295 0
299 -43 -712 0
-299 43 0
-299 712 0
300 -299 -47 0
-300 299 0
-300 47 0
301 -820 -298 0
-301 820 0
-301 298 0
302 -736 -19 0
-302 736 0
-302 19 0
303 -302 -35 0
-303 302 0
-303 35 0
304 -821 -301 0
-304 821 0
-304 301 0
305 -758 -745 0
-305 758 0
-305 745 0
306 -305 -732 0
-306 305 0
-306 732 0
307 -822 -304 0
-307 822 0
-307 304 0
308 -42 -704 0
-308 42 0
-308 704 0
309 -308 -823 0
-309 308 0
-309 823 0
310 -824 -307 0
-310 824 0
-310 307 0
311 -41 -11 0
-311 41 0
-311 11 0
312 -311 -3 0
-312 311 0
-312 3 0
313 -825 -310 0
-313 825 0
-313 310 0
314 -36 -728 0
-314 36 0
-314 728 0
315 -314 -3 0
-315 314 0
-315 3 0
316 -826 -313 0
-316 826 0
-316 313 0
317 -785 -15 0
-317 785 0
-317 15 0
318 -317 -742 0
-318 317 0
-318 742 0
319 -827 -316 0
-319 827 0
-319 316 0
320 -753 -26 0
-320 753 0
-320 26 0
321 -320 -50 0
-321 320 0
-321 50 0
322 -828 -319 0
-322 828 0
-322 319 0
323 -45 -19 0
-323 45 0
-323 19 0
324 -323 -16 0
-324 323 0
-324 16 0
325 -829 -322 0
-325 829 0
-325 322 0
326 -44 -699 0
-326 44 0
-326 699 0
327 -326 -46 0
-327 326 0
-327 46 0
328 -830 -325 0
-328 830 0
-328 325 0
329 -701 -773 0
-329 701 0
-329 773 0
330 -329 -15 0
-330 329 0
-330 15 0
331 -831 -328 0
-331 831 0
-331 328 0
332 -20 -12 0
-332 20 0
-332 12 0
333 -332 -732 0
-333 332 0
-333 732 0
334 -832 -331 0
-334 832 0
-334 331 0
335 -782 -24 0
-335 782 0
-335 24 0
336 -335 -746 0
-336 335 0
-336 746 0
337 -833 -334 0
-337 833 0
-337 334 0
338 -36 -34 0
-338 36 0
-338 34 0
339 -338 -711 0
-339 338 0
-339 711 0
340 -834 -337 0
-340 834 0
-340 337 0
341 -762 -27 0
-341 762 0
-341 27 0
342 -341 -47 0
-342 341 0
-342 47 0
343 -835 -340 0
-343 835 0
-343 340 0
344 -49 -34 0
-344 49 0
-344 34 0
345 -344 -16 0
-345 344 0
-345 16 0
346 -836 -343 0
-346 836 0
-346 343 0
347 -17 -699 0
-347 17 0
-347 699 0
348 -347 -732 0
-348 347 0
-348 732 0
349 -837 -346 0
-349 837 0
-349 346 0
350 -723 -838 0
-350 723 0
-350 838 0
351 -350 -839 0
-351 350 0
-351 839 0
352 -840 -349 0
-352 840 0
-352 349 0
353 -27 -19 0
-353 27 0
-353 19 0
354 -353 -818 0
-354 353 0
-354 818 0
355 -841 -352 0
-355 841 0
-355 352 0
356 -839 -732 0
-356 839 0
-356 732 0
357 -356 -775 0
-357 356 0
-357 775 0
358 -842 -355 0
-358 842 0
-358 355 0
359 -43 -744 0
-359 43 0
-359 744 0
360 -359 -723 0
-360 359 0
-360 723 0
361 -843 -358 0
-361 843 0
-361 358 0
362 -732 -712 0
-362 732 0
-362 712 0
363 -362 -3 0
-363 362 0
-363 3 0
364 -844 -361 0
-364 844 0
-364 361 0
365 -11 -5 0
-365 11 0
-365 5 0
366 -365 -45 0
-366 365 0
-366 45 0
367 -845 -364 0
-367 845 0
-367 364 0
368 -45 -785 0
-368 45 0
-368 785 0
369 -368 -770 0
-369 368 0
-369 770 0
370 -846 -367 0
-370 846 0
-370 367 0
371 -847 -13 0
-371 847 0
-371 13 0
372 -371 -718 0
-372 371 0
-372 718 0
373 -848 -370 0
-373 848 0
-373 370 0
374 -134 -2 0
-374 134 0
-374 2 0
375 -849 -373 0
-375 849 0
-375 373 0
376 -718 -704 0
-376 718 0
-376 704 0
377 -376 -1 0
-377 376 0
-377 1 0
378 -850 -375 0
-378 850 0
-378 375 0
379 -49 -851 0
-379 49 0
-379 851 0
380 -379 -25 0
-380 379 0
-380 25 0
381 -852 -378 0
-381 852 0
-381 378 0
382 -38 -26 0
-382 38 0
-382 26 0
383 -382 -773 0
-383 382 0
-383 773 0
384 -853 -381 0
-384 853 0
-384 381 0
385 -38 -847 0
-385 38 0
-385 847 0
386 -385 -33 0
-386 385 0
-386 33 0
387 -854 -384 0
-387 854 0
-387 384 0
388 -24 -745 0
-388 24 0
-388 745 0
389 -388 -701 0
-389 388 0
-389 701 0
390 -855 -387 0
-390 855 0
-390 387 0
391 -753 -17 0
-391 753 0
-391 17 0
392 -391 -1 0
-392 391 0
-392 1 0
393 -856 -390 0
-393 856 0
-393 390 0
394 -167 -16 0
-394 167 0
-394 16 0
395 -857 -393 0
-395 857 0
-395 393 0
396 -775 -32 0
-396 775 0
-396 32 0
397 -396 -23 0
-397 396 0
-397 23 0
398 -858 -395 0
-398 858 0
-398 395 0
399 -68 -722 0
-399 68 0
-399 722 0
400 -859 -398 0
-400 859 0
-400 398 0
401 -735 -30 0
-401 735 0
-401 30 0
402 -401 -722 0
-402 401 0
-402 722 0
403 -860 -400 0
-403 860 0
-403 400 0
404 -15 -10 0
-404 15 0
-404 10 0
405 -404 -768 0
-405 404 0
-405 768 0
406 -861 -403 0
-406 861 0
-406 403 0
407 -726 -701 0
-407 726 0
-407 701 0
408 -407 -790 0
-408 407 0
-408 790 0
409 -862 -406 0
-409 862 0
-409 406 0
410 -863 -35 0
-410 863 0
-410 35 0
411 -410 -16 0
-411 410 0
-411 16 0
412 -864 -409 0
-412 864 0
-412 409 0
413 -818 -11 0
-413 818 0
-413 11 0
414 -413 -775 0
-414 413 0
-414 775 0
415 -865 -412 0
-415 865 0
-415 412 0
416 -785 -866 0
-416 785 0
-416 866 0
417 -416 -40 0
-417 416 0
-417 40 0
418 -867 -415 0
-418 867 0
-418 415 0
419 -30 -28 0
-419 30 0
-419 28 0
420 -419 -29 0
-420 419 0
-420 29 0
421 -868 -418 0
-421 868 0
-421 418 0
422 -14 -699 0
-422 14 0
-422 699 0
423 -422 -25 0
-423 422 0
-423 25 0
424 -869 -421 0
-424 869 0
-424 421 0
425 -30 -20 0
-425 30 0
-425 20 0
426 -425 -706 0
-426 425 0
-426 706 0
427 -870 -424 0
-427 870 0
-427 424 0
428 -40 -27 0
-428 40 0
-428 27 0
429 -428 -33 0
-429 428 0
-429 33 0
430 -871 -427 0
-430 871 0
-430 427 0
431 -47 -718 0
-431 47 0
-431 718 0
432 -431 -50 0
-432 431 0
-432 50 0
433 -872 -430 0
-433 872 0
-433 430 0
434 -15 -699 0
-434 15 0
-434 699 0
435 -434 -29 0
-435 434 0
-435 29 0
436 -873 -433 0
-436 873 0
-436 433 0
437 -31 -13 0
-437 31 0
-437 13 0
438 -437 -45 0
-438 437 0
-438 45 0
439 -874 -436 0
-439 874 0
-439 436 0
440 -35 -847 0
-440 35 0
-440 847 0
441 -440 -746 0
-441 440 0
-441 746 0
442 -875 -439 0
-442 875 0
-442 439 0
443 -31 -701 0
-443 31 0
-443 701 0
444 -443 -776 0
-444 443 0
-444 776 0
445 -876 -442 0
-445 876 0
-445 442 0
446 -758 -866 0
-446 758 0
-446 866 0
447 -446 -715 0
-447 446 0
-447 715 0
448 -877 -445 0
-448 877 0
-448 445 0
449 -47 -25 0
-449 47 0
-449 25 0
450 -449 -50 0
-450 449 0
-450 50 0
451 -878 -448 0
-451 878 0
-451 448 0
452 -101 -699 0
-452 101 0
-452 699 0
453 -879 -451 0
-453 879 0
-453 451 0
454 -880 -712 0
-454 880 0
-454 712 0
455 -454 -776 0
-455 454 0
-455 776 0
456 -881 -453 0
-456 881 0
-456 453 0
457 -785 -704 0
-457 785 0
-457 704 0
458 -457 -42 0
-458 457 0
-458 42 0
459 -882 -456 0
-459 882 0
-459 456 0
460 -31 -1 0
-460 31 0
-460 1 0
461 -460 -746 0
-461 460 0
-461 746 0
462 -883 -459 0
-462 883 0
-462 459 0
463 -710 -851 0
-463 710 0
-463 851 0
464 -463 -706 0
-464 463 0
-464 706 0
465 -884 -462 0
-465 884 0
-465 462 0
466 -49 -818 0
-466 49 0
-466 818 0
467 -466 -40 0
-467 466 0
-467 40 0
468 -885 -465 0
-468 885 0
-468 465 0
469 -762 -776 0
-469 762 0
-469 776 0
470 -469 -39 0
-470 469 0
-470 39 0
471 -886 -468 0
-471 886 0
-471 468 0
472 -36 -711 0
-472 36 0
-472 711 0
473 -472 -703 0
-473 472 0
-473 703 0
474 -887 -471 0
-474 887 0
-474 471 0
475 -34 -838 0
-475 34 0
-475 838 0
476 -475 -742 0
-476 475 0
-476 742 0
477 -888 -474 0
-477 888 0
-477 474 0
478 -10 -5 0
-478 10 0
-478 5 0
479 -478 -823 0
-479 478 0
-479 823 0
480 -889 -477 0
-480 889 0
-480 477 0
481 -847 -24 0
-481 847 0
-481 24 0
482 -481 -746 0
-482 481 0
-482 746 0
483 -890 -480 0
-483 890 0
-483 480 0
484 -818 -2 0
-484 818 0
-484 2 0
485 -484 -25 0
-485 484 0
-485 25 0
486 -891 -483 0
-486 891 0
-486 483 0
487 -113 -45 0
-487 113 0
-487 45 0
488 -892 -486 0
-488 892 0
-488 486 0
489 -711 -703 0
-489 711 0
-489 703 0
490 -489 -37 0
-490 489 0
-490 37 0
491 -893 -488 0
-491 893 0
-491 488 0
492 -706 -7 0
-492 706 0
-492 7 0
493 -492 -23 0
-493 492 0
-493 23 0
494 -894 -491 0
-494 894 0
-494 491 0
495 -9 -8 0
-495 9 0
-495 8 0
496 -495 -706 0
-496 495 0
-496 706 0
497 -895 -494 0
-497 895 0
-497 494 0
498 -48 -847 0
-498 48 0
-498 847 0
499 -498 -28 0
-499 498 0
-499 28 0
500 -896 -497 0
-500 896 0
-500 497 0
501 -839 -14 0
-501 839 0
-501 14 0
502 -501 -15 0
-502 501 0
-502 15 0
503 -897 -500 0
-503 897 0
-503 500 0
504 -44 -40 0
-504 44 0
-504 40 0
505 -504 -712 0
-505 504 0
-505 712 0
506 -898 -503 0
-506 898 0
-506 503 0
507 -726 -708 0
-507 726 0
-507 708 0
508 -507 -773 0
-508 507 0
-508 773 0
509 -899 -506 0
-509 899 0
-509 506 0
510 -762 -3 0
-510 762 0
-510 3 0
511 -510 -768 0
-511 510 0
-511 768 0
512 -900 -509 0
-512 900 0
-512 509 0
513 -32 -718 0
-513 32 0
-513 718 0
514 -513 -770 0
-514 513 0
-514 770 0
515 -901 -512 0
-515 901 0
-515 512 0
516 -851 -9 0
-516 851 0
-516 9 0
517 -516 -6 0
-517 516 0
-517 6 0
518 -902 -515 0
-518 902 0
-518 515 0
519 -35 -21 0
-519 35 0
-519 21 0
520 -519 -39 0
-520 519 0
-520 39 0
521 -903 -518 0
-521 903 0
-521 518 0
522 -40 -37 0
-522 40 0
-522 37 0
523 -522 -11 0
-523 522 0
-523 11 0
524 -904 -521 0
-524 904 0
-524 521 0
525 -847 -10 0
-525 847 0
-525 10 0
526 -525 -773 0
-526 525 0
-526 773 0
527 -905 -524 0
-527 905 0
-527 524 0
528 -745 -699 0
-528 745 0
-528 699 0
529 -528 -31 0
-529 528 0
-529 31 0
530 -906 -527 0
-530 906 0
-530 527 0
531 -30 -704 0
-531 30 0
-531 704 0
532 -531 -735 0
-532 531 0
-532 735 0
533 -907 -530 0
-533 907 0
-533 530 0
534 -44 -36 0
-534 44 0
-534 36 0
535 -534 -723 0
-535 534 0
-535 723 0
536 -908 -533 0
-536 908 0
-536 533 0
537 -42 -736 0
-537 42 0
-537 736 0
538 -537 -28 0
-538 537 0
-538 28 0
539 -909 -536 0
-539 909 0
-539 536 0
540 -863 -36 0
-540 863 0
-540 36 0
541 -540 -703 0
-541 540 0
-541 703 0
542 -910 -539 0
-542 910 0
-542 539 0
543 -22 -751 0
-543 22 0
-543 751 0
544 -543 -823 0
-544 543 0
-544 823 0
545 -911 -542 0
-545 911 0
-545 542 0
546 -782 -34 0
-546 782 0
-546 34 0
547 -546 -773 0
-547 546 0
-547 773 0
548 -912 -545 0
-548 912 0
-548 545 0
549 -45 -715 0
-549 45 0
-549 715 0
550 -549 -46 0
-550 549 0
-550 46 0
551 -913 -548 0
-551 913 0
-551 548 0
552 -745 -696 0
-552 745 0
-552 696 0
553 -552 -751 0
-553 552 0
-553 751 0
554 -914 -551 0
-554 914 0
-554 551 0
555 -43 -6 0
-555 43 0
-555 6 0
556 -555 -776 0
-556 555 0
-556 776 0
557 -915 -554 0
-557 915 0
-557 554 0
558 -863 -14 0
-558 863 0
-558 14 0
559 -558 -21 0
-559 558 0
-559 21 0
560 -916 -557 0
-560 916 0
-560 557 0
561 -338 -823 0
-561 338 0
-561 823 0
562 -917 -560 0
-562 917 0
-562 560 0
563 -731 -6 0
-563 731 0
-563 6 0
564 -563 -719 0
-564 563 0
-564 719 0
565 -918 -562 0
-565 918 0
-565 562 0
566 -38 -735 0
-566 38 0
-566 735 0
567 -566 -732 0
-567 566 0
-567 732 0
568 -919 -565 0
-568 919 0
-568 565 0
569 -21 -13 0
-569 21 0
-569 13 0
570 -569 -770 0
-570 569 0
-570 770 0
571 -920 -568 0
-571 920 0
-571 568 0
572 -38 -726 0
-572 38 0
-572 726 0
573 -572 -851 0
-573 572 0
-573 851 0
574 -921 -571 0
-574 921 0
-574 571 0
575 -41 -13 0
-575 41 0
-575 13 0
576 -575 -731 0
-576 575 0
-576 731 0
577 -922 -574 0
-577 922 0
-577 574 0
578 -782 -14 0
-578 782 0
-578 14 0
579 -578 -696 0
-579 578 0
-579 696 0
580 -923 -577 0
-580 923 0
-580 577 0
581 -49 -42 0
-581 49 0
-581 42 0
582 -581 -839 0
-582 581 0
-582 839 0
583 -924 -580 0
-583 924 0
-583 580 0
584 -722 -710 0
-584 722 0
-584 710 0
585 -584 -46 0
-585 584 0
-585 46 0
586 -925 -583 0
-586 925 0
-586 583 0
587 -847 -4 0
-587 847 0
-587 4 0
588 -587 -41 0
-588 587 0
-588 41 0
589 -926 -586 0
-589 926 0
-589 586 0
590 -785 -745 0
-590 785 0
-590 745 0
591 -590 -746 0
-591 590 0
-591 746 0
592 -927 -589 0
-592 927 0
-592 589 0
593 -41 -778 0
-593 41 0
-593 778 0
594 -593 -718 0
-594 593 0
-594 718 0
595 -928 -592 0
-595 928 0
-595 592 0
596 -49 -43 0
-596 49 0
-596 43 0
597 -596 -731 0
-597 596 0
-597 731 0
598 -929 -595 0
-598 929 0
-598 595 0
599 -27 -718 0
-599 27 0
-599 718 0
600 -599 -45 0
-600 599 0
-600 45 0
601 -930 -598 0
-601 930 0
-601 598 0
602 -45 -728 0
-602 45 0
-602 728 0
603 -602 -790 0
-603 602 0
-603 790 0
604 -931 -601 0
-604 931 0
-604 601 0
605 -785 -13 0
-605 785 0
-605 13 0
606 -605 -722 0
-606 605 0
-606 722 0
607 -932 -604 0
-607 932 0
-607 604 0
608 -782 -712 0
-608 782 0
-608 712 0
609 -608 -25 0
-609 608 0
-609 25 0
610 -933 -607 0
-610 933 0
-610 607 0
611 -818 -712 0
-611 818 0
-611 712 0
612 -611 -50 0
-612 611 0
-612 50 0
613 -934 -610 0
-613 934 0
-613 610 0
614 -744 -723 0
-614 744 0
-614 723 0
615 -614 -8 0
-615 614 0
-615 8 0
616 -935 -613 0
-616 935 0
-616 613 0
617 -732 -748 0
-617 732 0
-617 748 0
618 -617 -762 0
-618 617 0
-618 762 0
619 -936 -616 0
-619 936 0
-619 616 0
620 -33 -762 0
-620 33 0
-620 762 0
621 -620 -712 0
-621 620 0
-621 712 0
622 -937 -619 0
-622 937 0
-622 619 0
623 -20 -703 0
-623 20 0
-623 703 0
624 -623 -14 0
-624 623 0
-624 14 0
625 -938 -622 0
-625 938 0
-625 622 0
626 -30 -5 0
-626 30 0
-626 5 0
627 -626 -742 0
-627 626 0
-627 742 0
628 -939 -625 0
-628 939 0
-628 625 0
629 -22 -745 0
-629 22 0
-629 745 0
630 -629 -33 0
-630 629 0
-630 33 0
631 -940 -628 0
-631 940 0
-631 628 0
632 -17 -4 0
-632 17 0
-632 4 0
633 -632 -719 0
-633 632 0
-633 719 0
634 -941 -631 0
-634 941 0
-634 631 0
635 -48 -703 0
-635 48 0
-635 703 0
636 -635 -39 0
-636 635 0
-636 39 0
637 -942 -634 0
-637 942 0
-637 634 0
638 -48 -755 0
-638 48 0
-638 755 0
639 -638 -24 0
-639 638 0
-639 24 0
640 -943 -637 0
-640 943 0
-640 637 0
641 -782 -696 0
-641 782 0
-641 696 0
642 -641 -15 0
-642 641 0
-642 15 0
643 -944 -640 0
-643 944 0
-643 640 0
644 -40 -30 0
-644 40 0
-644 30 0
645 -644 -723 0
-645 644 0
-645 723 0
646 -945 -643 0
-646 945 0
-646 643 0
647 -36 -851 0
-647 36 0
-647 851 0
648 -647 -731 0
-648 647 0
-648 731 0
649 -946 -646 0
-649 946 0
-649 646 0
650 -758 -851 0
-650 758 0
-650 851 0
651 -650 -21 0
-651 650 0
-651 21 0
652 -947 -649 0
-652 947 0
-652 649 0
653 -735 -18 0
-653 735 0
-653 18 0
654 -653 -25 0
-654 653 0
-654 25 0
655 -948 -652 0
-655 948 0
-655 652 0
656 -47 -30 0
-656 47 0
-656 30 0
657 -656 -29 0
-657 656 0
-657 29 0
658 -949 -655 0
-658 949 0
-658 655 0
659 -744 -17 0
-659 744 0
-659 17 0
660 -659 -776 0
-660 659 0
-660 776 0
661 -950 -658 0
-661 950 0
-661 658 0
662 -155 -742 0
-662 155 0
-662 742 0
663 -951 -661 0
-663 951 0
-663 661 0
664 -26 -4 0
-664 26 0
-664 4 0
665 -664 -31 0
-665 664 0
-665 31 0
666 -952 -663 0
-666 952 0
-666 663 0
667 -818 -38 0
-667 818 0
-667 38 0
668 -667 -710 0
-668 667 0
-668 710 0
669 -953 -666 0
-669 953 0
-669 666 0
670 -954 -785 0
-670 954 0
-670 785 0
671 -670 -16 0
-671 670 0
-671 16 0
672 -955 -669 0
-672 955 0
-672 669 0
673 -17 -704 0
-673 17 0
-673 704 0
674 -673 -26 0
-674 673 0
-674 26 0
675 -956 -672 0
-675 956 0
-675 672 0
676 -701 -8 0
-676 701 0
-676 8 0
677 -676 -742 0
-677 676 0
-677 742 0
678 -957 -675 0
-678 957 0
-678 675 0
679 -21 -699 0
-679 21 0
-679 699 0
680 -679 -719 0
-680 679 0
-680 719 0
681 -958 -678 0
-681 958 0
-681 678 0
682 -45 -12 0
-682 45 0
-682 12 0
683 -682 -742 0
-683 682 0
-683 742 0
684 -959 -681 0
-684 959 0
-684 681 0
685 -746 -715 0
-685 746 0
-685 715 0
686 -685 -28 0
-686 685 0
-686 28 0
687 -960 -684 0
-687 960 0
-687 684 0
688 -839 -5 0
-688 839 0
-688 5 0
689 -688 -3 0
-689 688 0
-689 3 0
690 -961 -687 0
-690 961 0
-690 687 0
691 -753 -735 0
-691 753 0
-691 735 0
692 -691 -21 0
-692 691 0
-692 21 0
693 -962 -690 0
-693 962 0
-693 690 0
694 -632 -16 0
-694 632 0
-694 16 0
695 -963 -693 0
-695 963 0
-695 693 0
-696 -6 0
696 6 0
-697 -54 0
697 54 0
-698 -52 0
698 52 0
-699 -8 0
699 8 0
-700 -57 0
700 57 0
-701 -11 0
701 11 0
-702 -60 0
702 60 0
-703 -13 0
703 13 0
-704 -12 0
704 12 0
-705 -63 0
705 63 0
-706 -14 0
706 14 0
-707 -66 0
707 66 0
-708 -7 0
708 7 0
-709 -69 0
709 69 0
-710 -20 0
710 20 0
-711 -19 0
711 19 0
-712 -21 0
712 21 0
-713 -72 0
713 72 0
-714 -75 0
714 75 0
-715 -9 0
715 9 0
-716 -78 0
716 78 0
-717 -81 0
717 81 0
-718 -26 0
718 26 0
-719 -23 0
719 23 0
-720 -84 0
720 84 0
-721 -87 0
721 87 0
-722 -28 0
722 28 0
-723 -24 0
723 24 0
-724 -90 0
724 90 0
-725 -93 0
725 93 0
-726 -30 0
726 30 0
-727 -96 0
727 96 0
-728 -33 0
728 33 0
-729 -99 0
729 99 0
-730 -102 0
730 102 0
-731 -31 0
731 31 0
-732 -35 0
732 35 0
-733 -105 0
733 105 0
-734 -108 0
734 108 0
-735 -37 0
735 37 0
-736 -22 0
736 22 0
-737 -111 0
737 111 0
-738 -114 0
738 114 0
-739 -117 0
739 117 0
-740 -120 0
740 120 0
-741 -123 0
741 123 0
-742 -39 0
742 39 0
-743 -126 0
743 126 0
-744 -40 0
744 40 0
-745 -10 0
745 10 0
-746 -15 0
746 15 0
-747 -129 0
747 129 0
-748 -34 0
748 34 0
-749 -132 0
749 132 0
-750 -135 0
750 135 0
-751 -2 0
751 2 0
-752 -138 0
752 138 0
-753 -42 0
753 42 0
-754 -141 0
754 141 0
-755 -41 0
755 41 0
-756 -144 0
756 144 0
-757 -147 0
757 147 0
-758 -43 0
758 43 0
-759 -150 0
759 150 0
-760 -153 0
760 153 0
-761 -156 0
761 156 0
-762 -32 0
762 32 0
-763 -159 0
763 159 0
-764 -162 0
764 162 0
-765 -165 0
765 165 0
-766 -168 0
766 168 0
-767 -171 0
767 171 0
-768 -16 0
768 16 0
-769 -174 0
769 174 0
-770 -46 0
770 46 0
-771 -177 0
771 177 0
-772 -180 0
772 180 0
-773 -5 0
773 5 0
-774 -183 0
774 183 0
-775 -47 0
775 47 0
-776 -25 0
776 25 0
-777 -186 0
777 186 0
-778 -17 0
778 17 0
-779 -189 0
779 189 0
-780 -192 0
780 192 0
-781 -195 0
781 195 0
-782 -49 0
782 49 0
-783 -198 0
783 198 0
-784 -201 0
784 201 0
-785 -36 0
785 36 0
-786 -204 0
786 204 0
-787 -207 0
787 207 0
-788 -210 0
788 210 0
-789 -213 0
789 213 0
-790 -3 0
790 3 0
-791 -216 0
791 216 0
-792 -219 0
792 219 0
-793 -222 0
793 222 0
-794 -225 0
794 225 0
-795 -228 0
795 228 0
-796 -231 0
796 231 0
-797 -234 0
797 234 0
-798 -237 0
798 237 0
-799 -240 0
799 240 0
-800 -243 0
800 243 0
-801 -246 0
801 246 0
-802 -249 0
802 249 0
-803 -252 0
803 252 0
-804 -255 0
804 255 0
-805 -258 0
805 258 0
-806 -261 0
806 261 0
-807 -264 0
807 264 0
-808 -267 0
808 267 0
-809 -270 0
809 270 0
-810 -273 0
810 273 0
-811 -276 0
811 276 0
-812 -279 0
812 279 0
-813 -282 0
813 282 0
-814 -285 0
814 285 0
-815 -288 0
815 288 0
-816 -291 0
816 291 0
-817 -294 0
817 294 0
-818 -48 0
818 48 0
-819 -297 0
819 297 0
-820 -300 0
820 300 0
-821 -303 0
821 303 0
-822 -306 0
822 306 0
-823 -29 0
823 29 0
-824 -309 0
824 309 0
-825 -312 0
825 312 0
-826 -315 0
826 315 0
-827 -318 0
827 318 0
-828 -321 0
828 321 0
-829 -324 0
829 324 0
-830 -327 0
830 327 0
-831 -330 0
831 330 0
-832 -333 0
832 333 0
-833 -336 0
833 336 0
-834 -339 0
834 339 0
-835 -342 0
835 342 0
-836 -345 0
836 345 0
-837 -348 0
837 348 0
-838 -1 0
838 1 0
-839 -45 0
839 45 0
-840 -351 0
840 351 0
-841 -354 0
841 354 0
-842 -357 0
842 357 0
-843 -360 0
843 360 0
-844 -363 0
844 363 0
-845 -366 0
845 366 0
-846 -369 0
846 369 0
-847 -27 0
847 27 0
-848 -372 0
848 372 0
-849 -374 0
849 374 0
-850 -377 0
850 377 0
-851 -18 0
851 18 0
-852 -380 0
852 380 0
-853 -383 0
853 383 0
-854 -386 0
854 386 0
-855 -389 0
855 389 0
-856 -392 0
856 392 0
-857 -394 0
857 394 0
-858 -397 0
858 397 0
-859 -399 0
859 399 0
-860 -402 0
860 402 0
-861 -405 0
861 405 0
-862 -408 0
862 408 0
-863 -38 0
863 38 0
-864 -411 0
864 411 0
-865 -414 0
865 414 0
-866 -4 0
866 4 0
-867 -417 0
867 417 0
-868 -420 0
868 420 0
-869 -423 0
869 423 0
-870 -426 0
870 426 0
-871 -429 0
871 429 0
-872 -432 0
872 432 0
-873 -435 0
873 435 0
-874 -438 0
874 438 0
-875 -441 0
875 441 0
-876 -444 0
876 444 0
-877 -447 0
877 447 0
-878 -450 0
878 450 0
-879 -452 0
879 452 0
-880 -44 0
880 44 0
-881 -455 0
881 455 0
-882 -458 0
882 458 0
-883 -461 0
883 461 0
-884 -464 0
884 464 0
-885 -467 0
885 467 0
-886 -470 0
886 470 0
-887 -473 0
887 473 0
-888 -476 0
888 476 0
-889 -479 0
889 479 0
-890 -482 0
890 482 0
-891 -485 0
891 485 0
-892 -487 0
892 487 0
-893 -490 0
893 490 0
-894 -493 0
894 493 0
-895 -496 0
895 496 0
-896 -499 0
896 499 0
-897 -502 0
897 502 0
-898 -505 0
898 505 0
-899 -508 0
899 508 0
-900 -511 0
900 511 0
-901 -514 0
901 514 0
-902 -517 0
902 517 0
-903 -520 0
903 520 0
-904 -523 0
904 523 0
-905 -526 0
905 526 0
-906 -529 0
906 529 0
-907 -532 0
907 532 0
-908 -535 0
908 535 0
-909 -538 0
909 538 0
-910 -541 0
910 541 0
-911 -544 0
911 544 0
-912 -547 0
912 547 0
-913 -550 0
913 550 0
-914 -553 0
914 553 0
-915 -556 0
915 556 0
-916 -559 0
916 559 0
-917 -561 0
917 561 0
-918 -564 0
918 564 0
-919 -567 0
919 567 0
-920 -570 0
920 570 0
-921 -573 0
921 573 0
-922 -576 0
922 576 0
-923 -579 0
923 579 0
-924 -582 0
924 582 0
-925 -585 0
925 585 0
-926 -588 0
926 588 0
-927 -591 0
927 591 0
-928 -594 0
928 594 0
-929 -597 0
929 597 0
-930 -600 0
930 600 0
-931 -603 0
931 603 0
-932 -606 0
932 606 0
-933 -609 0
933 609 0
-934 -612 0
934 612 0
-935 -615 0
935 615 0
-936 -618 0
936 618 0
-937 -621 0
937 621 0
-938 -624 0
938 624 0
-939 -627 0
939 627 0
-940 -630 0
940 630 0
-941 -633 0
941 633 0
-942 -636 0
942 636 0
-943 -639 0
943 639 0
-944 -642 0
944 642 0
-945 -645 0
945 645 0
-946 -648 0
946 648 0
-947 -651 0
947 651 0
-948 -654 0
948 654 0
-949 -657 0
949 657 0
-950 -660 0
950 660 0
-951 -662 0
951 662 0
-952 -665 0
952 665 0
-953 -668 0
953 668 0
-954 -50 0
954 50 0
-955 -671 0
955 671 0
-956 -674 0
956 674 0
-957 -677 0
957 677 0
-958 -680 0
958 680 0
-959 -683 0
959 683 0
-960 -686 0
960 686 0
-961 -689 0
961 689 0
-962 -692 0
962 692 0
-963 -694 0
963 694 0
695 0
